c File: flat200_3_0.col
c
c SOURCE: Joseph Culberson (joe@cs.ualberta.ca)
c DESCRIPTION: Quasi-random coloring problem
c              generated with flatness = 0
c                             probability = 0.036
c                             known coloring = 3
c                             random seed = 1048
c              Creation Date:  Wed Feb 24 10:39:55 1999
c Maximum degree = 8 Minimum degree = 0
c COLOR VERIFICATION: Using the permuted order
c under simple greedy yields the specified
c coloring number
c Color = 3 specified partitions = 3
c p edge 200 479
c cnf created by edge2cnf
p cnf 600 2237
-1 -2 0
-1 -3 0
-2 -3 0
1 2 3 0
-4 -5 0
-4 -6 0
-5 -6 0
4 5 6 0
-7 -8 0
-7 -9 0
-8 -9 0
7 8 9 0
-10 -11 0
-10 -12 0
-11 -12 0
10 11 12 0
-13 -14 0
-13 -15 0
-14 -15 0
13 14 15 0
-16 -17 0
-16 -18 0
-17 -18 0
16 17 18 0
-19 -20 0
-19 -21 0
-20 -21 0
19 20 21 0
-22 -23 0
-22 -24 0
-23 -24 0
22 23 24 0
-25 -26 0
-25 -27 0
-26 -27 0
25 26 27 0
-28 -29 0
-28 -30 0
-29 -30 0
28 29 30 0
-31 -32 0
-31 -33 0
-32 -33 0
31 32 33 0
-34 -35 0
-34 -36 0
-35 -36 0
34 35 36 0
-37 -38 0
-37 -39 0
-38 -39 0
37 38 39 0
-40 -41 0
-40 -42 0
-41 -42 0
40 41 42 0
-43 -44 0
-43 -45 0
-44 -45 0
43 44 45 0
-46 -47 0
-46 -48 0
-47 -48 0
46 47 48 0
-49 -50 0
-49 -51 0
-50 -51 0
49 50 51 0
-52 -53 0
-52 -54 0
-53 -54 0
52 53 54 0
-55 -56 0
-55 -57 0
-56 -57 0
55 56 57 0
-58 -59 0
-58 -60 0
-59 -60 0
58 59 60 0
-61 -62 0
-61 -63 0
-62 -63 0
61 62 63 0
-64 -65 0
-64 -66 0
-65 -66 0
64 65 66 0
-67 -68 0
-67 -69 0
-68 -69 0
67 68 69 0
-70 -71 0
-70 -72 0
-71 -72 0
70 71 72 0
-73 -74 0
-73 -75 0
-74 -75 0
73 74 75 0
-76 -77 0
-76 -78 0
-77 -78 0
76 77 78 0
-79 -80 0
-79 -81 0
-80 -81 0
79 80 81 0
-82 -83 0
-82 -84 0
-83 -84 0
82 83 84 0
-85 -86 0
-85 -87 0
-86 -87 0
85 86 87 0
-88 -89 0
-88 -90 0
-89 -90 0
88 89 90 0
-91 -92 0
-91 -93 0
-92 -93 0
91 92 93 0
-94 -95 0
-94 -96 0
-95 -96 0
94 95 96 0
-97 -98 0
-97 -99 0
-98 -99 0
97 98 99 0
-100 -101 0
-100 -102 0
-101 -102 0
100 101 102 0
-103 -104 0
-103 -105 0
-104 -105 0
103 104 105 0
-106 -107 0
-106 -108 0
-107 -108 0
106 107 108 0
-109 -110 0
-109 -111 0
-110 -111 0
109 110 111 0
-112 -113 0
-112 -114 0
-113 -114 0
112 113 114 0
-115 -116 0
-115 -117 0
-116 -117 0
115 116 117 0
-118 -119 0
-118 -120 0
-119 -120 0
118 119 120 0
-121 -122 0
-121 -123 0
-122 -123 0
121 122 123 0
-124 -125 0
-124 -126 0
-125 -126 0
124 125 126 0
-127 -128 0
-127 -129 0
-128 -129 0
127 128 129 0
-130 -131 0
-130 -132 0
-131 -132 0
130 131 132 0
-133 -134 0
-133 -135 0
-134 -135 0
133 134 135 0
-136 -137 0
-136 -138 0
-137 -138 0
136 137 138 0
-139 -140 0
-139 -141 0
-140 -141 0
139 140 141 0
-142 -143 0
-142 -144 0
-143 -144 0
142 143 144 0
-145 -146 0
-145 -147 0
-146 -147 0
145 146 147 0
-148 -149 0
-148 -150 0
-149 -150 0
148 149 150 0
-151 -152 0
-151 -153 0
-152 -153 0
151 152 153 0
-154 -155 0
-154 -156 0
-155 -156 0
154 155 156 0
-157 -158 0
-157 -159 0
-158 -159 0
157 158 159 0
-160 -161 0
-160 -162 0
-161 -162 0
160 161 162 0
-163 -164 0
-163 -165 0
-164 -165 0
163 164 165 0
-166 -167 0
-166 -168 0
-167 -168 0
166 167 168 0
-169 -170 0
-169 -171 0
-170 -171 0
169 170 171 0
-172 -173 0
-172 -174 0
-173 -174 0
172 173 174 0
-175 -176 0
-175 -177 0
-176 -177 0
175 176 177 0
-178 -179 0
-178 -180 0
-179 -180 0
178 179 180 0
-181 -182 0
-181 -183 0
-182 -183 0
181 182 183 0
-184 -185 0
-184 -186 0
-185 -186 0
184 185 186 0
-187 -188 0
-187 -189 0
-188 -189 0
187 188 189 0
-190 -191 0
-190 -192 0
-191 -192 0
190 191 192 0
-193 -194 0
-193 -195 0
-194 -195 0
193 194 195 0
-196 -197 0
-196 -198 0
-197 -198 0
196 197 198 0
-199 -200 0
-199 -201 0
-200 -201 0
199 200 201 0
-202 -203 0
-202 -204 0
-203 -204 0
202 203 204 0
-205 -206 0
-205 -207 0
-206 -207 0
205 206 207 0
-208 -209 0
-208 -210 0
-209 -210 0
208 209 210 0
-211 -212 0
-211 -213 0
-212 -213 0
211 212 213 0
-214 -215 0
-214 -216 0
-215 -216 0
214 215 216 0
-217 -218 0
-217 -219 0
-218 -219 0
217 218 219 0
-220 -221 0
-220 -222 0
-221 -222 0
220 221 222 0
-223 -224 0
-223 -225 0
-224 -225 0
223 224 225 0
-226 -227 0
-226 -228 0
-227 -228 0
226 227 228 0
-229 -230 0
-229 -231 0
-230 -231 0
229 230 231 0
-232 -233 0
-232 -234 0
-233 -234 0
232 233 234 0
-235 -236 0
-235 -237 0
-236 -237 0
235 236 237 0
-238 -239 0
-238 -240 0
-239 -240 0
238 239 240 0
-241 -242 0
-241 -243 0
-242 -243 0
241 242 243 0
-244 -245 0
-244 -246 0
-245 -246 0
244 245 246 0
-247 -248 0
-247 -249 0
-248 -249 0
247 248 249 0
-250 -251 0
-250 -252 0
-251 -252 0
250 251 252 0
-253 -254 0
-253 -255 0
-254 -255 0
253 254 255 0
-256 -257 0
-256 -258 0
-257 -258 0
256 257 258 0
-259 -260 0
-259 -261 0
-260 -261 0
259 260 261 0
-262 -263 0
-262 -264 0
-263 -264 0
262 263 264 0
-265 -266 0
-265 -267 0
-266 -267 0
265 266 267 0
-268 -269 0
-268 -270 0
-269 -270 0
268 269 270 0
-271 -272 0
-271 -273 0
-272 -273 0
271 272 273 0
-274 -275 0
-274 -276 0
-275 -276 0
274 275 276 0
-277 -278 0
-277 -279 0
-278 -279 0
277 278 279 0
-280 -281 0
-280 -282 0
-281 -282 0
280 281 282 0
-283 -284 0
-283 -285 0
-284 -285 0
283 284 285 0
-286 -287 0
-286 -288 0
-287 -288 0
286 287 288 0
-289 -290 0
-289 -291 0
-290 -291 0
289 290 291 0
-292 -293 0
-292 -294 0
-293 -294 0
292 293 294 0
-295 -296 0
-295 -297 0
-296 -297 0
295 296 297 0
-298 -299 0
-298 -300 0
-299 -300 0
298 299 300 0
-301 -302 0
-301 -303 0
-302 -303 0
301 302 303 0
-304 -305 0
-304 -306 0
-305 -306 0
304 305 306 0
-307 -308 0
-307 -309 0
-308 -309 0
307 308 309 0
-310 -311 0
-310 -312 0
-311 -312 0
310 311 312 0
-313 -314 0
-313 -315 0
-314 -315 0
313 314 315 0
-316 -317 0
-316 -318 0
-317 -318 0
316 317 318 0
-319 -320 0
-319 -321 0
-320 -321 0
319 320 321 0
-322 -323 0
-322 -324 0
-323 -324 0
322 323 324 0
-325 -326 0
-325 -327 0
-326 -327 0
325 326 327 0
-328 -329 0
-328 -330 0
-329 -330 0
328 329 330 0
-331 -332 0
-331 -333 0
-332 -333 0
331 332 333 0
-334 -335 0
-334 -336 0
-335 -336 0
334 335 336 0
-337 -338 0
-337 -339 0
-338 -339 0
337 338 339 0
-340 -341 0
-340 -342 0
-341 -342 0
340 341 342 0
-343 -344 0
-343 -345 0
-344 -345 0
343 344 345 0
-346 -347 0
-346 -348 0
-347 -348 0
346 347 348 0
-349 -350 0
-349 -351 0
-350 -351 0
349 350 351 0
-352 -353 0
-352 -354 0
-353 -354 0
352 353 354 0
-355 -356 0
-355 -357 0
-356 -357 0
355 356 357 0
-358 -359 0
-358 -360 0
-359 -360 0
358 359 360 0
-361 -362 0
-361 -363 0
-362 -363 0
361 362 363 0
-364 -365 0
-364 -366 0
-365 -366 0
364 365 366 0
-367 -368 0
-367 -369 0
-368 -369 0
367 368 369 0
-370 -371 0
-370 -372 0
-371 -372 0
370 371 372 0
-373 -374 0
-373 -375 0
-374 -375 0
373 374 375 0
-376 -377 0
-376 -378 0
-377 -378 0
376 377 378 0
-379 -380 0
-379 -381 0
-380 -381 0
379 380 381 0
-382 -383 0
-382 -384 0
-383 -384 0
382 383 384 0
-385 -386 0
-385 -387 0
-386 -387 0
385 386 387 0
-388 -389 0
-388 -390 0
-389 -390 0
388 389 390 0
-391 -392 0
-391 -393 0
-392 -393 0
391 392 393 0
-394 -395 0
-394 -396 0
-395 -396 0
394 395 396 0
-397 -398 0
-397 -399 0
-398 -399 0
397 398 399 0
-400 -401 0
-400 -402 0
-401 -402 0
400 401 402 0
-403 -404 0
-403 -405 0
-404 -405 0
403 404 405 0
-406 -407 0
-406 -408 0
-407 -408 0
406 407 408 0
-409 -410 0
-409 -411 0
-410 -411 0
409 410 411 0
-412 -413 0
-412 -414 0
-413 -414 0
412 413 414 0
-415 -416 0
-415 -417 0
-416 -417 0
415 416 417 0
-418 -419 0
-418 -420 0
-419 -420 0
418 419 420 0
-421 -422 0
-421 -423 0
-422 -423 0
421 422 423 0
-424 -425 0
-424 -426 0
-425 -426 0
424 425 426 0
-427 -428 0
-427 -429 0
-428 -429 0
427 428 429 0
-430 -431 0
-430 -432 0
-431 -432 0
430 431 432 0
-433 -434 0
-433 -435 0
-434 -435 0
433 434 435 0
-436 -437 0
-436 -438 0
-437 -438 0
436 437 438 0
-439 -440 0
-439 -441 0
-440 -441 0
439 440 441 0
-442 -443 0
-442 -444 0
-443 -444 0
442 443 444 0
-445 -446 0
-445 -447 0
-446 -447 0
445 446 447 0
-448 -449 0
-448 -450 0
-449 -450 0
448 449 450 0
-451 -452 0
-451 -453 0
-452 -453 0
451 452 453 0
-454 -455 0
-454 -456 0
-455 -456 0
454 455 456 0
-457 -458 0
-457 -459 0
-458 -459 0
457 458 459 0
-460 -461 0
-460 -462 0
-461 -462 0
460 461 462 0
-463 -464 0
-463 -465 0
-464 -465 0
463 464 465 0
-466 -467 0
-466 -468 0
-467 -468 0
466 467 468 0
-469 -470 0
-469 -471 0
-470 -471 0
469 470 471 0
-472 -473 0
-472 -474 0
-473 -474 0
472 473 474 0
-475 -476 0
-475 -477 0
-476 -477 0
475 476 477 0
-478 -479 0
-478 -480 0
-479 -480 0
478 479 480 0
-481 -482 0
-481 -483 0
-482 -483 0
481 482 483 0
-484 -485 0
-484 -486 0
-485 -486 0
484 485 486 0
-487 -488 0
-487 -489 0
-488 -489 0
487 488 489 0
-490 -491 0
-490 -492 0
-491 -492 0
490 491 492 0
-493 -494 0
-493 -495 0
-494 -495 0
493 494 495 0
-496 -497 0
-496 -498 0
-497 -498 0
496 497 498 0
-499 -500 0
-499 -501 0
-500 -501 0
499 500 501 0
-502 -503 0
-502 -504 0
-503 -504 0
502 503 504 0
-505 -506 0
-505 -507 0
-506 -507 0
505 506 507 0
-508 -509 0
-508 -510 0
-509 -510 0
508 509 510 0
-511 -512 0
-511 -513 0
-512 -513 0
511 512 513 0
-514 -515 0
-514 -516 0
-515 -516 0
514 515 516 0
-517 -518 0
-517 -519 0
-518 -519 0
517 518 519 0
-520 -521 0
-520 -522 0
-521 -522 0
520 521 522 0
-523 -524 0
-523 -525 0
-524 -525 0
523 524 525 0
-526 -527 0
-526 -528 0
-527 -528 0
526 527 528 0
-529 -530 0
-529 -531 0
-530 -531 0
529 530 531 0
-532 -533 0
-532 -534 0
-533 -534 0
532 533 534 0
-535 -536 0
-535 -537 0
-536 -537 0
535 536 537 0
-538 -539 0
-538 -540 0
-539 -540 0
538 539 540 0
-541 -542 0
-541 -543 0
-542 -543 0
541 542 543 0
-544 -545 0
-544 -546 0
-545 -546 0
544 545 546 0
-547 -548 0
-547 -549 0
-548 -549 0
547 548 549 0
-550 -551 0
-550 -552 0
-551 -552 0
550 551 552 0
-553 -554 0
-553 -555 0
-554 -555 0
553 554 555 0
-556 -557 0
-556 -558 0
-557 -558 0
556 557 558 0
-559 -560 0
-559 -561 0
-560 -561 0
559 560 561 0
-562 -563 0
-562 -564 0
-563 -564 0
562 563 564 0
-565 -566 0
-565 -567 0
-566 -567 0
565 566 567 0
-568 -569 0
-568 -570 0
-569 -570 0
568 569 570 0
-571 -572 0
-571 -573 0
-572 -573 0
571 572 573 0
-574 -575 0
-574 -576 0
-575 -576 0
574 575 576 0
-577 -578 0
-577 -579 0
-578 -579 0
577 578 579 0
-580 -581 0
-580 -582 0
-581 -582 0
580 581 582 0
-583 -584 0
-583 -585 0
-584 -585 0
583 584 585 0
-586 -587 0
-586 -588 0
-587 -588 0
586 587 588 0
-589 -590 0
-589 -591 0
-590 -591 0
589 590 591 0
-592 -593 0
-592 -594 0
-593 -594 0
592 593 594 0
-595 -596 0
-595 -597 0
-596 -597 0
595 596 597 0
-598 -599 0
-598 -600 0
-599 -600 0
598 599 600 0
-91 -1 0
-92 -2 0
-93 -3 0
-157 -1 0
-158 -2 0
-159 -3 0
-241 -1 0
-242 -2 0
-243 -3 0
-271 -1 0
-272 -2 0
-273 -3 0
-598 -1 0
-599 -2 0
-600 -3 0
-19 -4 0
-20 -5 0
-21 -6 0
-172 -4 0
-173 -5 0
-174 -6 0
-244 -4 0
-245 -5 0
-246 -6 0
-517 -4 0
-518 -5 0
-519 -6 0
-523 -4 0
-524 -5 0
-525 -6 0
-577 -4 0
-578 -5 0
-579 -6 0
-64 -7 0
-65 -8 0
-66 -9 0
-175 -7 0
-176 -8 0
-177 -9 0
-325 -7 0
-326 -8 0
-327 -9 0
-412 -7 0
-413 -8 0
-414 -9 0
-466 -7 0
-467 -8 0
-468 -9 0
-40 -10 0
-41 -11 0
-42 -12 0
-352 -10 0
-353 -11 0
-354 -12 0
-397 -10 0
-398 -11 0
-399 -12 0
-133 -13 0
-134 -14 0
-135 -15 0
-181 -13 0
-182 -14 0
-183 -15 0
-196 -13 0
-197 -14 0
-198 -15 0
-481 -13 0
-482 -14 0
-483 -15 0
-499 -13 0
-500 -14 0
-501 -15 0
-571 -13 0
-572 -14 0
-573 -15 0
-19 -16 0
-20 -17 0
-21 -18 0
-103 -16 0
-104 -17 0
-105 -18 0
-208 -16 0
-209 -17 0
-210 -18 0
-214 -16 0
-215 -17 0
-216 -18 0
-469 -16 0
-470 -17 0
-471 -18 0
-595 -16 0
-596 -17 0
-597 -18 0
-115 -19 0
-116 -20 0
-117 -21 0
-202 -19 0
-203 -20 0
-204 -21 0
-331 -19 0
-332 -20 0
-333 -21 0
-400 -19 0
-401 -20 0
-402 -21 0
-562 -19 0
-563 -20 0
-564 -21 0
-568 -19 0
-569 -20 0
-570 -21 0
-52 -22 0
-53 -23 0
-54 -24 0
-124 -22 0
-125 -23 0
-126 -24 0
-220 -22 0
-221 -23 0
-222 -24 0
-250 -22 0
-251 -23 0
-252 -24 0
-385 -22 0
-386 -23 0
-387 -24 0
-544 -22 0
-545 -23 0
-546 -24 0
-250 -25 0
-251 -26 0
-252 -27 0
-403 -25 0
-404 -26 0
-405 -27 0
-478 -25 0
-479 -26 0
-480 -27 0
-484 -25 0
-485 -26 0
-486 -27 0
-46 -28 0
-47 -29 0
-48 -30 0
-130 -28 0
-131 -29 0
-132 -30 0
-175 -28 0
-176 -29 0
-177 -30 0
-178 -28 0
-179 -29 0
-180 -30 0
-337 -28 0
-338 -29 0
-339 -30 0
-376 -28 0
-377 -29 0
-378 -30 0
-76 -31 0
-77 -32 0
-78 -33 0
-187 -31 0
-188 -32 0
-189 -33 0
-244 -31 0
-245 -32 0
-246 -33 0
-466 -31 0
-467 -32 0
-468 -33 0
-514 -31 0
-515 -32 0
-516 -33 0
-535 -31 0
-536 -32 0
-537 -33 0
-253 -34 0
-254 -35 0
-255 -36 0
-562 -34 0
-563 -35 0
-564 -36 0
-328 -37 0
-329 -38 0
-330 -39 0
-346 -37 0
-347 -38 0
-348 -39 0
-529 -37 0
-530 -38 0
-531 -39 0
-178 -40 0
-179 -41 0
-180 -42 0
-340 -40 0
-341 -41 0
-342 -42 0
-388 -40 0
-389 -41 0
-390 -42 0
-400 -40 0
-401 -41 0
-402 -42 0
-502 -40 0
-503 -41 0
-504 -42 0
-529 -40 0
-530 -41 0
-531 -42 0
-556 -40 0
-557 -41 0
-558 -42 0
-46 -43 0
-47 -44 0
-48 -45 0
-76 -43 0
-77 -44 0
-78 -45 0
-133 -43 0
-134 -44 0
-135 -45 0
-151 -43 0
-152 -44 0
-153 -45 0
-235 -43 0
-236 -44 0
-237 -45 0
-139 -46 0
-140 -47 0
-141 -48 0
-241 -46 0
-242 -47 0
-243 -48 0
-286 -46 0
-287 -47 0
-288 -48 0
-376 -46 0
-377 -47 0
-378 -48 0
-583 -46 0
-584 -47 0
-585 -48 0
-316 -49 0
-317 -50 0
-318 -51 0
-427 -49 0
-428 -50 0
-429 -51 0
-469 -49 0
-470 -50 0
-471 -51 0
-592 -49 0
-593 -50 0
-594 -51 0
-67 -52 0
-68 -53 0
-69 -54 0
-313 -52 0
-314 -53 0
-315 -54 0
-424 -52 0
-425 -53 0
-426 -54 0
-433 -52 0
-434 -53 0
-435 -54 0
-487 -52 0
-488 -53 0
-489 -54 0
-556 -52 0
-557 -53 0
-558 -54 0
-64 -55 0
-65 -56 0
-66 -57 0
-169 -55 0
-170 -56 0
-171 -57 0
-328 -55 0
-329 -56 0
-330 -57 0
-427 -55 0
-428 -56 0
-429 -57 0
-484 -55 0
-485 -56 0
-486 -57 0
-502 -55 0
-503 -56 0
-504 -57 0
-310 -58 0
-311 -59 0
-312 -60 0
-379 -61 0
-380 -62 0
-381 -63 0
-475 -61 0
-476 -62 0
-477 -63 0
-547 -61 0
-548 -62 0
-549 -63 0
-562 -61 0
-563 -62 0
-564 -63 0
-277 -64 0
-278 -65 0
-279 -66 0
-553 -64 0
-554 -65 0
-555 -66 0
-559 -64 0
-560 -65 0
-561 -66 0
-184 -67 0
-185 -68 0
-186 -69 0
-100 -70 0
-101 -71 0
-102 -72 0
-280 -70 0
-281 -71 0
-282 -72 0
-436 -70 0
-437 -71 0
-438 -72 0
-523 -70 0
-524 -71 0
-525 -72 0
-151 -73 0
-152 -74 0
-153 -75 0
-373 -73 0
-374 -74 0
-375 -75 0
-448 -73 0
-449 -74 0
-450 -75 0
-487 -73 0
-488 -74 0
-489 -75 0
-493 -73 0
-494 -74 0
-495 -75 0
-541 -73 0
-542 -74 0
-543 -75 0
-583 -73 0
-584 -74 0
-585 -75 0
-190 -76 0
-191 -77 0
-192 -78 0
-262 -76 0
-263 -77 0
-264 -78 0
-460 -76 0
-461 -77 0
-462 -78 0
-511 -76 0
-512 -77 0
-513 -78 0
-529 -76 0
-530 -77 0
-531 -78 0
-337 -79 0
-338 -80 0
-339 -81 0
-379 -79 0
-380 -80 0
-381 -81 0
-475 -79 0
-476 -80 0
-477 -81 0
-595 -79 0
-596 -80 0
-597 -81 0
-280 -82 0
-281 -83 0
-282 -84 0
-442 -82 0
-443 -83 0
-444 -84 0
-463 -82 0
-464 -83 0
-465 -84 0
-202 -85 0
-203 -86 0
-204 -87 0
-205 -85 0
-206 -86 0
-207 -87 0
-232 -85 0
-233 -86 0
-234 -87 0
-472 -85 0
-473 -86 0
-474 -87 0
-163 -88 0
-164 -89 0
-165 -90 0
-196 -88 0
-197 -89 0
-198 -90 0
-373 -88 0
-374 -89 0
-375 -90 0
-400 -88 0
-401 -89 0
-402 -90 0
-403 -88 0
-404 -89 0
-405 -90 0
-211 -91 0
-212 -92 0
-213 -93 0
-346 -91 0
-347 -92 0
-348 -93 0
-466 -91 0
-467 -92 0
-468 -93 0
-538 -91 0
-539 -92 0
-540 -93 0
-154 -94 0
-155 -95 0
-156 -96 0
-172 -94 0
-173 -95 0
-174 -96 0
-226 -94 0
-227 -95 0
-228 -96 0
-283 -94 0
-284 -95 0
-285 -96 0
-325 -94 0
-326 -95 0
-327 -96 0
-484 -94 0
-485 -95 0
-486 -96 0
-136 -97 0
-137 -98 0
-138 -99 0
-232 -97 0
-233 -98 0
-234 -99 0
-520 -97 0
-521 -98 0
-522 -99 0
-583 -97 0
-584 -98 0
-585 -99 0
-160 -100 0
-161 -101 0
-162 -102 0
-202 -100 0
-203 -101 0
-204 -102 0
-244 -100 0
-245 -101 0
-246 -102 0
-412 -100 0
-413 -101 0
-414 -102 0
-583 -100 0
-584 -101 0
-585 -102 0
-589 -100 0
-590 -101 0
-591 -102 0
-253 -103 0
-254 -104 0
-255 -105 0
-289 -103 0
-290 -104 0
-291 -105 0
-313 -103 0
-314 -104 0
-315 -105 0
-337 -103 0
-338 -104 0
-339 -105 0
-484 -103 0
-485 -104 0
-486 -105 0
-520 -103 0
-521 -104 0
-522 -105 0
-529 -103 0
-530 -104 0
-531 -105 0
-127 -106 0
-128 -107 0
-129 -108 0
-211 -106 0
-212 -107 0
-213 -108 0
-262 -106 0
-263 -107 0
-264 -108 0
-352 -106 0
-353 -107 0
-354 -108 0
-529 -106 0
-530 -107 0
-531 -108 0
-583 -106 0
-584 -107 0
-585 -108 0
-148 -109 0
-149 -110 0
-150 -111 0
-205 -109 0
-206 -110 0
-207 -111 0
-397 -109 0
-398 -110 0
-399 -111 0
-580 -109 0
-581 -110 0
-582 -111 0
-319 -112 0
-320 -113 0
-321 -114 0
-367 -112 0
-368 -113 0
-369 -114 0
-496 -112 0
-497 -113 0
-498 -114 0
-139 -115 0
-140 -116 0
-141 -117 0
-193 -115 0
-194 -116 0
-195 -117 0
-316 -115 0
-317 -116 0
-318 -117 0
-349 -115 0
-350 -116 0
-351 -117 0
-322 -118 0
-323 -119 0
-324 -120 0
-373 -118 0
-374 -119 0
-375 -120 0
-496 -118 0
-497 -119 0
-498 -120 0
-586 -118 0
-587 -119 0
-588 -120 0
-424 -121 0
-425 -122 0
-426 -123 0
-235 -124 0
-236 -125 0
-237 -126 0
-340 -124 0
-341 -125 0
-342 -126 0
-442 -124 0
-443 -125 0
-444 -126 0
-505 -124 0
-506 -125 0
-507 -126 0
-526 -124 0
-527 -125 0
-528 -126 0
-184 -127 0
-185 -128 0
-186 -129 0
-451 -127 0
-452 -128 0
-453 -129 0
-208 -130 0
-209 -131 0
-210 -132 0
-439 -130 0
-440 -131 0
-441 -132 0
-202 -133 0
-203 -134 0
-204 -135 0
-253 -133 0
-254 -134 0
-255 -135 0
-301 -133 0
-302 -134 0
-303 -135 0
-169 -136 0
-170 -137 0
-171 -138 0
-190 -136 0
-191 -137 0
-192 -138 0
-238 -136 0
-239 -137 0
-240 -138 0
-262 -136 0
-263 -137 0
-264 -138 0
-370 -136 0
-371 -137 0
-372 -138 0
-571 -136 0
-572 -137 0
-573 -138 0
-193 -139 0
-194 -140 0
-195 -141 0
-223 -139 0
-224 -140 0
-225 -141 0
-352 -139 0
-353 -140 0
-354 -141 0
-367 -139 0
-368 -140 0
-369 -141 0
-397 -139 0
-398 -140 0
-399 -141 0
-592 -139 0
-593 -140 0
-594 -141 0
-274 -142 0
-275 -143 0
-276 -144 0
-286 -142 0
-287 -143 0
-288 -144 0
-394 -142 0
-395 -143 0
-396 -144 0
-388 -145 0
-389 -146 0
-390 -147 0
-439 -145 0
-440 -146 0
-441 -147 0
-556 -145 0
-557 -146 0
-558 -147 0
-151 -148 0
-152 -149 0
-153 -150 0
-367 -148 0
-368 -149 0
-369 -150 0
-400 -148 0
-401 -149 0
-402 -150 0
-442 -151 0
-443 -152 0
-444 -153 0
-550 -151 0
-551 -152 0
-552 -153 0
-574 -151 0
-575 -152 0
-576 -153 0
-439 -154 0
-440 -155 0
-441 -156 0
-163 -157 0
-164 -158 0
-165 -159 0
-274 -157 0
-275 -158 0
-276 -159 0
-349 -157 0
-350 -158 0
-351 -159 0
-535 -157 0
-536 -158 0
-537 -159 0
-166 -160 0
-167 -161 0
-168 -162 0
-256 -160 0
-257 -161 0
-258 -162 0
-271 -160 0
-272 -161 0
-273 -162 0
-352 -160 0
-353 -161 0
-354 -162 0
-442 -160 0
-443 -161 0
-444 -162 0
-520 -160 0
-521 -161 0
-522 -162 0
-256 -163 0
-257 -164 0
-258 -165 0
-367 -163 0
-368 -164 0
-369 -165 0
-382 -163 0
-383 -164 0
-384 -165 0
-424 -163 0
-425 -164 0
-426 -165 0
-496 -163 0
-497 -164 0
-498 -165 0
-292 -166 0
-293 -167 0
-294 -168 0
-385 -166 0
-386 -167 0
-387 -168 0
-589 -166 0
-590 -167 0
-591 -168 0
-211 -169 0
-212 -170 0
-213 -171 0
-388 -169 0
-389 -170 0
-390 -171 0
-592 -169 0
-593 -170 0
-594 -171 0
-295 -172 0
-296 -173 0
-297 -174 0
-343 -172 0
-344 -173 0
-345 -174 0
-424 -172 0
-425 -173 0
-426 -174 0
-208 -175 0
-209 -176 0
-210 -177 0
-271 -175 0
-272 -176 0
-273 -177 0
-277 -175 0
-278 -176 0
-279 -177 0
-562 -175 0
-563 -176 0
-564 -177 0
-181 -178 0
-182 -179 0
-183 -180 0
-205 -178 0
-206 -179 0
-207 -180 0
-280 -178 0
-281 -179 0
-282 -180 0
-430 -178 0
-431 -179 0
-432 -180 0
-562 -178 0
-563 -179 0
-564 -180 0
-193 -181 0
-194 -182 0
-195 -183 0
-580 -181 0
-581 -182 0
-582 -183 0
-343 -187 0
-344 -188 0
-345 -189 0
-553 -187 0
-554 -188 0
-555 -189 0
-586 -187 0
-587 -188 0
-588 -189 0
-202 -190 0
-203 -191 0
-204 -192 0
-220 -190 0
-221 -191 0
-222 -192 0
-331 -190 0
-332 -191 0
-333 -192 0
-382 -190 0
-383 -191 0
-384 -192 0
-517 -190 0
-518 -191 0
-519 -192 0
-262 -193 0
-263 -194 0
-264 -195 0
-271 -193 0
-272 -194 0
-273 -195 0
-280 -193 0
-281 -194 0
-282 -195 0
-442 -196 0
-443 -197 0
-444 -198 0
-445 -196 0
-446 -197 0
-447 -198 0
-250 -199 0
-251 -200 0
-252 -201 0
-262 -199 0
-263 -200 0
-264 -201 0
-316 -199 0
-317 -200 0
-318 -201 0
-319 -199 0
-320 -200 0
-321 -201 0
-403 -199 0
-404 -200 0
-405 -201 0
-436 -202 0
-437 -203 0
-438 -204 0
-568 -202 0
-569 -203 0
-570 -204 0
-325 -205 0
-326 -206 0
-327 -207 0
-403 -205 0
-404 -206 0
-405 -207 0
-283 -208 0
-284 -209 0
-285 -210 0
-346 -208 0
-347 -209 0
-348 -210 0
-376 -208 0
-377 -209 0
-378 -210 0
-271 -211 0
-272 -212 0
-273 -213 0
-349 -211 0
-350 -212 0
-351 -213 0
-487 -211 0
-488 -212 0
-489 -213 0
-595 -211 0
-596 -212 0
-597 -213 0
-325 -214 0
-326 -215 0
-327 -216 0
-340 -214 0
-341 -215 0
-342 -216 0
-397 -214 0
-398 -215 0
-399 -216 0
-457 -214 0
-458 -215 0
-459 -216 0
-508 -214 0
-509 -215 0
-510 -216 0
-220 -217 0
-221 -218 0
-222 -219 0
-304 -217 0
-305 -218 0
-306 -219 0
-337 -220 0
-338 -221 0
-339 -222 0
-592 -220 0
-593 -221 0
-594 -222 0
-598 -220 0
-599 -221 0
-600 -222 0
-286 -223 0
-287 -224 0
-288 -225 0
-313 -223 0
-314 -224 0
-315 -225 0
-490 -223 0
-491 -224 0
-492 -225 0
-562 -223 0
-563 -224 0
-564 -225 0
-256 -226 0
-257 -227 0
-258 -228 0
-343 -226 0
-344 -227 0
-345 -228 0
-355 -226 0
-356 -227 0
-357 -228 0
-508 -226 0
-509 -227 0
-510 -228 0
-232 -229 0
-233 -230 0
-234 -231 0
-259 -229 0
-260 -230 0
-261 -231 0
-457 -229 0
-458 -230 0
-459 -231 0
-526 -229 0
-527 -230 0
-528 -231 0
-265 -232 0
-266 -233 0
-267 -234 0
-319 -232 0
-320 -233 0
-321 -234 0
-511 -232 0
-512 -233 0
-513 -234 0
-598 -232 0
-599 -233 0
-600 -234 0
-244 -238 0
-245 -239 0
-246 -240 0
-283 -238 0
-284 -239 0
-285 -240 0
-286 -238 0
-287 -239 0
-288 -240 0
-301 -238 0
-302 -239 0
-303 -240 0
-328 -238 0
-329 -239 0
-330 -240 0
-454 -238 0
-455 -239 0
-456 -240 0
-553 -238 0
-554 -239 0
-555 -240 0
-331 -241 0
-332 -242 0
-333 -243 0
-364 -241 0
-365 -242 0
-366 -243 0
-373 -241 0
-374 -242 0
-375 -243 0
-391 -241 0
-392 -242 0
-393 -243 0
-454 -241 0
-455 -242 0
-456 -243 0
-526 -241 0
-527 -242 0
-528 -243 0
-307 -244 0
-308 -245 0
-309 -246 0
-442 -244 0
-443 -245 0
-444 -246 0
-478 -244 0
-479 -245 0
-480 -246 0
-322 -247 0
-323 -248 0
-324 -249 0
-328 -247 0
-329 -248 0
-330 -249 0
-397 -247 0
-398 -248 0
-399 -249 0
-418 -247 0
-419 -248 0
-420 -249 0
-439 -247 0
-440 -248 0
-441 -249 0
-292 -250 0
-293 -251 0
-294 -252 0
-310 -250 0
-311 -251 0
-312 -252 0
-370 -250 0
-371 -251 0
-372 -252 0
-583 -250 0
-584 -251 0
-585 -252 0
-322 -253 0
-323 -254 0
-324 -255 0
-523 -253 0
-524 -254 0
-525 -255 0
-367 -256 0
-368 -257 0
-369 -258 0
-541 -256 0
-542 -257 0
-543 -258 0
-349 -259 0
-350 -260 0
-351 -261 0
-355 -259 0
-356 -260 0
-357 -261 0
-466 -259 0
-467 -260 0
-468 -261 0
-574 -259 0
-575 -260 0
-576 -261 0
-388 -262 0
-389 -263 0
-390 -264 0
-577 -265 0
-578 -266 0
-579 -267 0
-508 -268 0
-509 -269 0
-510 -270 0
-283 -271 0
-284 -272 0
-285 -273 0
-463 -271 0
-464 -272 0
-465 -273 0
-517 -271 0
-518 -272 0
-519 -273 0
-391 -274 0
-392 -275 0
-393 -276 0
-328 -277 0
-329 -278 0
-330 -279 0
-484 -277 0
-485 -278 0
-486 -279 0
-403 -280 0
-404 -281 0
-405 -282 0
-568 -280 0
-569 -281 0
-570 -282 0
-559 -283 0
-560 -284 0
-561 -285 0
-532 -286 0
-533 -287 0
-534 -288 0
-319 -289 0
-320 -290 0
-321 -291 0
-427 -289 0
-428 -290 0
-429 -291 0
-559 -289 0
-560 -290 0
-561 -291 0
-571 -289 0
-572 -290 0
-573 -291 0
-412 -292 0
-413 -293 0
-414 -294 0
-439 -292 0
-440 -293 0
-441 -294 0
-589 -292 0
-590 -293 0
-591 -294 0
-418 -295 0
-419 -296 0
-420 -297 0
-496 -295 0
-497 -296 0
-498 -297 0
-385 -298 0
-386 -299 0
-387 -300 0
-541 -298 0
-542 -299 0
-543 -300 0
-580 -301 0
-581 -302 0
-582 -303 0
-493 -304 0
-494 -305 0
-495 -306 0
-568 -304 0
-569 -305 0
-570 -306 0
-538 -307 0
-539 -308 0
-540 -309 0
-367 -313 0
-368 -314 0
-369 -315 0
-403 -313 0
-404 -314 0
-405 -315 0
-451 -313 0
-452 -314 0
-453 -315 0
-523 -313 0
-524 -314 0
-525 -315 0
-466 -316 0
-467 -317 0
-468 -318 0
-505 -316 0
-506 -317 0
-507 -318 0
-322 -319 0
-323 -320 0
-324 -321 0
-337 -319 0
-338 -320 0
-339 -321 0
-502 -319 0
-503 -320 0
-504 -321 0
-409 -322 0
-410 -323 0
-411 -324 0
-433 -325 0
-434 -326 0
-435 -327 0
-442 -331 0
-443 -332 0
-444 -333 0
-499 -331 0
-500 -332 0
-501 -333 0
-457 -334 0
-458 -335 0
-459 -336 0
-511 -337 0
-512 -338 0
-513 -339 0
-430 -343 0
-431 -344 0
-432 -345 0
-445 -343 0
-446 -344 0
-447 -345 0
-388 -346 0
-389 -347 0
-390 -348 0
-496 -346 0
-497 -347 0
-498 -348 0
-514 -346 0
-515 -347 0
-516 -348 0
-493 -349 0
-494 -350 0
-495 -351 0
-496 -349 0
-497 -350 0
-498 -351 0
-598 -352 0
-599 -353 0
-600 -354 0
-472 -355 0
-473 -356 0
-474 -357 0
-490 -358 0
-491 -359 0
-492 -360 0
-511 -358 0
-512 -359 0
-513 -360 0
-547 -358 0
-548 -359 0
-549 -360 0
-439 -361 0
-440 -362 0
-441 -363 0
-430 -364 0
-431 -365 0
-432 -366 0
-379 -367 0
-380 -368 0
-381 -369 0
-550 -367 0
-551 -368 0
-552 -369 0
-580 -370 0
-581 -371 0
-582 -372 0
-595 -370 0
-596 -371 0
-597 -372 0
-550 -373 0
-551 -374 0
-552 -375 0
-562 -373 0
-563 -374 0
-564 -375 0
-580 -373 0
-581 -374 0
-582 -375 0
-430 -376 0
-431 -377 0
-432 -378 0
-544 -376 0
-545 -377 0
-546 -378 0
-385 -379 0
-386 -380 0
-387 -381 0
-427 -379 0
-428 -380 0
-429 -381 0
-406 -382 0
-407 -383 0
-408 -384 0
-415 -382 0
-416 -383 0
-417 -384 0
-448 -388 0
-449 -389 0
-450 -390 0
-520 -388 0
-521 -389 0
-522 -390 0
-568 -391 0
-569 -392 0
-570 -393 0
-595 -391 0
-596 -392 0
-597 -393 0
-598 -391 0
-599 -392 0
-600 -393 0
-448 -394 0
-449 -395 0
-450 -396 0
-427 -400 0
-428 -401 0
-429 -402 0
-523 -403 0
-524 -404 0
-525 -405 0
-418 -406 0
-419 -407 0
-420 -408 0
-439 -406 0
-440 -407 0
-441 -408 0
-478 -409 0
-479 -410 0
-480 -411 0
-481 -409 0
-482 -410 0
-483 -411 0
-517 -409 0
-518 -410 0
-519 -411 0
-541 -412 0
-542 -413 0
-543 -414 0
-553 -412 0
-554 -413 0
-555 -414 0
-445 -415 0
-446 -416 0
-447 -417 0
-451 -415 0
-452 -416 0
-453 -417 0
-508 -415 0
-509 -416 0
-510 -417 0
-445 -418 0
-446 -419 0
-447 -420 0
-544 -418 0
-545 -419 0
-546 -420 0
-571 -418 0
-572 -419 0
-573 -420 0
-550 -421 0
-551 -422 0
-552 -423 0
-514 -424 0
-515 -425 0
-516 -426 0
-595 -427 0
-596 -428 0
-597 -429 0
-454 -436 0
-455 -437 0
-456 -438 0
-457 -436 0
-458 -437 0
-459 -438 0
-499 -439 0
-500 -440 0
-501 -441 0
-511 -445 0
-512 -446 0
-513 -447 0
-553 -445 0
-554 -446 0
-555 -447 0
-535 -448 0
-536 -449 0
-537 -450 0
-592 -448 0
-593 -449 0
-594 -450 0
-493 -454 0
-494 -455 0
-495 -456 0
-505 -454 0
-506 -455 0
-507 -456 0
-535 -454 0
-536 -455 0
-537 -456 0
-478 -457 0
-479 -458 0
-480 -459 0
-529 -460 0
-530 -461 0
-531 -462 0
-580 -466 0
-581 -467 0
-582 -468 0
-586 -466 0
-587 -467 0
-588 -468 0
-526 -469 0
-527 -470 0
-528 -471 0
-532 -472 0
-533 -473 0
-534 -474 0
-478 -475 0
-479 -476 0
-480 -477 0
-571 -475 0
-572 -476 0
-573 -477 0
-598 -475 0
-599 -476 0
-600 -477 0
-499 -481 0
-500 -482 0
-501 -483 0
-577 -481 0
-578 -482 0
-579 -483 0
-523 -484 0
-524 -485 0
-525 -486 0
-493 -487 0
-494 -488 0
-495 -489 0
-517 -487 0
-518 -488 0
-519 -489 0
-592 -487 0
-593 -488 0
-594 -489 0
-586 -493 0
-587 -494 0
-588 -495 0
-520 -514 0
-521 -515 0
-522 -516 0
-574 -517 0
-575 -518 0
-576 -519 0
-571 -520 0
-572 -521 0
-573 -522 0
-595 -520 0
-596 -521 0
-597 -522 0
-562 -523 0
-563 -524 0
-564 -525 0
-550 -526 0
-551 -527 0
-552 -528 0
-541 -538 0
-542 -539 0
-543 -540 0
-568 -538 0
-569 -539 0
-570 -540 0
-583 -538 0
-584 -539 0
-585 -540 0
-598 -550 0
-599 -551 0
-600 -552 0
-586 -553 0
-587 -554 0
-588 -555 0
-592 -574 0
-593 -575 0
-594 -576 0
